************************************************************************
file with basedata            : mm30_.bas
initial value random generator: 842057008
************************************************************************
projects                      :  1
jobs (incl. supersource/sink ):  12
horizon                       :  83
RESOURCES
  - renewable                 :  2   R
  - nonrenewable              :  2   N
  - doubly constrained        :  0   D
************************************************************************
PROJECT INFORMATION:
pronr.  #jobs rel.date duedate tardcost  MPM-Time
    1     10      0       13        8       13
************************************************************************
PRECEDENCE RELATIONS:
jobnr.    #modes  #successors   successors
   1        1          3           2   3   4
   2        3          1          11
   3        3          3           5   6   7
   4        3          1           9
   5        3          1          10
   6        3          2           8  11
   7        3          2           9  11
   8        3          2           9  10
   9        3          1          12
  10        3          1          12
  11        3          1          12
  12        1          0        
************************************************************************
REQUESTS/DURATIONS:
jobnr. mode duration  R 1  R 2  N 1  N 2
------------------------------------------------------------------------
  1      1     0       0    0    0    0
  2      1     1       0    7    5   10
         2     4       0    7    3    9
         3     4       5    0    2    9
  3      1     1       9    0    8    6
         2     2       0    5    6    5
         3    10       0    2    4    4
  4      1     3      10    0    7    3
         2     7       9    0    7    3
         3    10       0   10    7    2
  5      1     4       0    1    6   10
         2     6      10    0    5    8
         3     6       9    0    6    9
  6      1     1       0    5    7    9
         2     9       5    0    5    9
         3     9       0    5    5    9
  7      1     8       4    0    9    9
         2     9       2    0    9    9
         3    10       0    4    8    8
  8      1     4       0    8    9    6
         2     6       0    6    9    5
         3     9       0    5    8    5
  9      1     4       6    0    1    7
         2     7       6    0    1    6
         3     7       0    5    1    7
 10      1     3       0    3    5    9
         2     9       0    3    5    8
         3    10       0    1    4    7
 11      1     2       0    8    9    6
         2     4       7    0    7    3
         3     8       0    5    6    1
 12      1     0       0    0    0    0
************************************************************************
RESOURCEAVAILABILITIES:
  R 1  R 2  N 1  N 2
   34   23   58   67
************************************************************************
MAXIMAL LAGS:
from  to  type  delay
    1   12   ES      0
    1    2   ES      0
    2   12   ES      0
    1    3   ES      0
    3   12   ES      0
    1    4   ES      0
    4   12   ES      0
    1    5   ES      0
    5   12   ES      0
    1    6   ES      0
    6   12   ES      0
    1    7   ES      0
    7   12   ES      0
    1    8   ES      0
    8   12   ES      0
    1    9   ES      0
    9   12   ES      0
    1   10   ES      0
   10   12   ES      0
    1   11   ES      0
   11   12   ES      0
    1   12   ES      0
    2   11   SS     -1
    2   11   SE      2
    2   11   ES      5
    2   11   EE     -7
    3    5   SS      5
    3    5   SE     -3
    3    5   ES     -9
    3    5   EE    -12
    3    6   SS      0
    3    6   SE      3
    3    6   ES     12
    3    6   EE     -8
    3    7   SS      2
    3    7   SE     -2
    3    7   ES     -8
    3    7   EE    -12
    4    9   SS     11
    4    9   SE      5
    4    9   ES      4
    4    9   EE     -2
    5   10   SS      8
    5   10   SE     10
    5   10   ES     -3
    5   10   EE      3
    6    8   SS     -3
    6    8   SE     12
    6    8   ES      6
    6    8   EE      9
    6   11   SS     -8
    6   11   SE      6
    6   11   ES     11
    6   11   EE      2
    7    9   SS     -2
    7    9   SE     10
    7    9   ES     -9
    7    9   EE     11
    7   11   SS      3
    7   11   SE    -11
    7   11   ES     -8
    7   11   EE      9
    8    9   SS      5
    8    9   SE     -9
    8    9   ES     -3
    8    9   EE    -12
    8   10   SS      0
    8   10   SE      7
    8   10   ES     -5
    8   10   EE      2
************************************************************************
